NAME: tsp45_16
COMMENT: 45-tsp problem (Padberg/Rinaldi)
TYPE: TSP
DIMENSION: 45
EDGE_WEIGHT_TYPE : EUC_2D
NODE_COORD_SECTION
1 36 23
2 1 33
3 36 10
4 1 12
5 34 25
6 16 37
7 29 37
8 6 20
9 32 16
10 6 19
11 21 38
12 12 28
13 10 8
14 11 36
15 23 31
16 15 6
17 9 1
18 21 37
19 19 29
20 38 30
21 37 0
22 39 32
23 23 35
24 31 26
25 22 5
26 11 23
27 25 8
28 28 27
29 7 9
30 27 26
31 19 8
32 2 33
33 10 15
34 5 1
35 34 35
36 27 22
37 12 37
38 35 10
39 13 14
40 20 17
41 32 12
42 22 32
43 9 28
44 36 38
45 20 29
